100 86496

 975 205
18 302
948 201
369 775
11 713
690 635
981 388
966 910
161 970
182 174
566 224
638 526
740 92
182 437
960 582
639 523
848 331
541 543
415 959
978 207
583 655
867 44
954 67
676 552
549 105
4 23
41 172
201 565
187 704
255 203
305 669
361 183
421 614
99 412
43 654
674 996
538 938
445 5
635 886
828 67
428 954
642 282
954 383
840 92
427 113
645 727
178 945
561 611
982 716
519 762
928 263
408 46
999 2
580 351
43 242
587 63
275 180
33 125
821 915
276 141
797 538
289 594
195 544
974 100
362 319
602 52
610 396
561 189
915 562
675 693
404 533
863 435
182 388
545 842
951 220
626 735
817 758
654 420
840 298
945 471
273 94
170 46
484 112
702 188
228 505
5 850
343 236
969 936
695 955
402 959
193 838
357 364
170 73
107 569
907 559
998 850
165 996
55 509
330 346
462 186
